SDVRP instances/custom_instances/p04_18_splitx10_0.vrp
NAME:p04_18_splitx10_
BEST_KNOWN: 0
COMMENT: 0
DIMENSION: 702
CAPACITY: 2000
EDGE_WEIGHT_FORMAT: FUNCTION
EDGE_WEIGHT_TYPE: EXACT_2D
NODE_COORD_SECTION
1 0.00000 0.00000
2 -21 44
3 -21 44
4 -21 44
5 33 1
6 33 1
7 33 1
8 33 1
9 -8 45
10 -8 45
11 -8 45
12 2 -28
13 2 -28
14 2 -28
15 2 -28
16 2 -28
17 40 -33
18 40 -33
19 40 -33
20 40 -33
21 40 -33
22 8 16
23 8 16
24 8 16
25 37 31
26 37 31
27 37 31
28 -36 -46
29 -36 -46
30 -36 -46
31 -36 -46
32 -36 -46
33 -36 -46
34 -36 -46
35 26 10
36 26 10
37 26 10
38 33 -50
39 33 -50
40 33 -50
41 33 -50
42 33 -50
43 33 -50
44 33 -50
45 -20 5
46 -20 5
47 -20 5
48 -20 5
49 -20 5
50 -20 5
51 -20 5
52 -20 5
53 -4 -23
54 -4 -23
55 -4 -23
56 50 -16
57 50 -16
58 50 -16
59 50 -16
60 50 -16
61 50 -16
62 18 4
63 18 4
64 18 4
65 18 4
66 -22 16
67 -22 16
68 -22 16
69 13 -49
70 13 -49
71 13 -49
72 13 -49
73 13 -49
74 13 -49
75 -13 6
76 -13 6
77 -13 6
78 -13 6
79 -1 49
80 -1 49
81 -1 49
82 -1 49
83 -1 49
84 -1 49
85 15 -29
86 15 -29
87 15 -29
88 15 -29
89 -43 35
90 -43 35
91 -43 35
92 -43 35
93 46 -45
94 46 -45
95 46 -45
96 7 -19
97 7 -19
98 7 -19
99 7 -19
100 7 -19
101 7 -19
102 -39 38
103 -39 38
104 -39 38
105 -39 38
106 -18 -48
107 -18 -48
108 -18 -48
109 -18 -48
110 -18 -48
111 44 46
112 44 46
113 44 46
114 44 46
115 44 46
116 44 46
117 44 46
118 -37 -12
119 -37 -12
120 -37 -12
121 15 27
122 15 27
123 15 27
124 15 27
125 9 -4
126 9 -4
127 9 -4
128 20 13
129 20 13
130 20 13
131 20 13
132 20 13
133 20 13
134 12 12
135 12 12
136 12 12
137 12 12
138 12 12
139 12 12
140 22 39
141 22 39
142 -2 -49
143 -2 -49
144 -2 -49
145 -2 -49
146 -2 -49
147 42 37
148 42 37
149 42 37
150 42 37
151 42 37
152 42 37
153 42 37
154 42 37
155 -50 43
156 -50 43
157 -50 43
158 -50 43
159 -17 26
160 -17 26
161 -17 26
162 -17 26
163 -17 26
164 -17 26
165 34 45
166 34 45
167 34 45
168 34 45
169 23 3
170 23 3
171 23 3
172 23 3
173 23 3
174 23 3
175 -48 -12
176 -48 -12
177 -48 -12
178 -48 -12
179 1 -21
180 1 -21
181 1 -21
182 -4 -28
183 -4 -28
184 -4 -28
185 -4 -28
186 -4 -28
187 -29 30
188 -29 30
189 -29 30
190 -29 30
191 -29 30
192 -29 30
193 -29 30
194 -36 -43
195 -36 -43
196 -36 -43
197 -36 -43
198 22 -19
199 22 -19
200 22 -19
201 22 -19
202 22 -19
203 45 2
204 45 2
205 45 2
206 41 -46
207 41 -46
208 41 -46
209 41 -46
210 -20 -31
211 -20 -31
212 -20 -31
213 -20 -31
214 -20 -31
215 -20 -31
216 17 -14
217 17 -14
218 17 -14
219 17 -14
220 17 -14
221 17 -14
222 -33 -17
223 -33 -17
224 -33 -17
225 6 -30
226 6 -30
227 6 -30
228 6 -30
229 6 -30
230 6 -30
231 6 -30
232 30 -22
233 30 -22
234 30 -22
235 30 -22
236 30 -22
237 30 -22
238 30 -22
239 20 16
240 20 16
241 20 16
242 20 16
243 20 16
244 20 16
245 20 16
246 -19 13
247 -19 13
248 -19 13
249 -19 13
250 -19 13
251 4 25
252 4 25
253 -34 16
254 -34 16
255 -34 16
256 -34 16
257 -34 16
258 -34 16
259 -34 16
260 -19 43
261 -19 43
262 -19 43
263 -19 43
264 -19 43
265 -28 9
266 -28 9
267 -28 9
268 -13 11
269 -13 11
270 -13 11
271 -13 11
272 -29 -49
273 -29 -49
274 -29 -49
275 -29 -49
276 -29 -49
277 27 30
278 27 30
279 27 30
280 41 2
281 41 2
282 41 2
283 41 2
284 41 2
285 41 2
286 1 30
287 1 30
288 1 30
289 1 30
290 1 30
291 -46 16
292 -46 16
293 -46 16
294 -46 16
295 -11 -10
296 -11 -10
297 -11 -10
298 -11 -10
299 -11 -10
300 1 -38
301 1 -38
302 1 -38
303 1 -38
304 -9 18
305 -9 18
306 -9 18
307 -9 18
308 -9 18
309 -9 18
310 -9 18
311 -13 7
312 -13 7
313 -13 7
314 -13 7
315 -13 7
316 -13 7
317 -13 7
318 -13 7
319 -19 28
320 -19 28
321 -19 28
322 21 -14
323 21 -14
324 21 -14
325 21 -14
326 21 -14
327 -43 -26
328 -43 -26
329 -43 -26
330 -48 6
331 -48 6
332 -48 6
333 -48 6
334 -48 6
335 -48 6
336 -17 -36
337 -17 -36
338 -17 -36
339 -17 -36
340 17 -36
341 17 -36
342 17 -36
343 -37 -43
344 -37 -43
345 -37 -43
346 -37 -43
347 -37 -43
348 27 -14
349 27 -14
350 27 -14
351 27 -14
352 27 -14
353 27 -14
354 -5 -19
355 -5 -19
356 30 -36
357 30 -36
358 30 -36
359 -43 -31
360 -43 -31
361 -43 -31
362 -43 -31
363 25 -20
364 25 -20
365 25 -20
366 25 -20
367 25 -20
368 -50 -33
369 -50 -33
370 -50 -33
371 -50 -33
372 -7 -4
373 -7 -4
374 -7 -4
375 -7 -4
376 -7 -4
377 -7 -4
378 -35 38
379 -35 38
380 -35 38
381 -35 38
382 -25 32
383 -25 32
384 -25 32
385 -25 32
386 -25 32
387 -25 32
388 -25 32
389 -25 32
390 18 46
391 18 46
392 18 46
393 18 46
394 18 46
395 43 47
396 43 47
397 43 47
398 -49 -37
399 -49 -37
400 -49 -37
401 -49 -37
402 -49 -37
403 -49 -37
404 12 39
405 12 39
406 12 39
407 12 39
408 12 39
409 12 39
410 12 39
411 -10 29
412 -10 29
413 -10 29
414 -10 29
415 -10 29
416 -10 29
417 32 -24
418 32 -24
419 32 -24
420 32 -24
421 32 -24
422 32 -24
423 32 -24
424 36 15
425 36 15
426 36 15
427 36 15
428 36 15
429 36 15
430 -26 -27
431 -26 -27
432 -26 -27
433 -26 -27
434 -26 -27
435 -26 -27
436 -26 -27
437 -47 -50
438 -47 -50
439 -47 -50
440 -47 -50
441 -47 -50
442 13 -43
443 13 -43
444 13 -43
445 13 -43
446 13 -43
447 13 -43
448 -18 -36
449 -18 -36
450 -18 -36
451 -18 -36
452 -18 -36
453 -18 -36
454 -10 25
455 -10 25
456 -10 25
457 -10 25
458 -10 25
459 -10 25
460 -10 25
461 -10 25
462 -22 -16
463 -22 -16
464 -22 -16
465 -22 -16
466 -22 -16
467 3 -42
468 3 -42
469 3 -42
470 3 -42
471 3 -42
472 -31 -19
473 -31 -19
474 -31 -19
475 -31 -19
476 -31 -19
477 -31 -19
478 20 26
479 20 26
480 20 26
481 20 26
482 20 26
483 46 46
484 46 46
485 46 46
486 46 46
487 -36 13
488 -36 13
489 -36 13
490 -36 13
491 -36 13
492 -36 13
493 -36 -42
494 -36 -42
495 -36 -42
496 -36 -42
497 -36 -42
498 47 -50
499 47 -50
500 -32 38
501 -32 38
502 -32 38
503 -32 38
504 -32 38
505 -32 38
506 -32 38
507 46 44
508 46 44
509 46 44
510 46 44
511 46 44
512 -49 16
513 -49 16
514 -15 39
515 -15 39
516 -15 39
517 -15 39
518 -46 -43
519 -46 -43
520 -46 -43
521 28 31
522 28 31
523 28 31
524 28 31
525 28 31
526 -30 -9
527 -30 -9
528 -30 -9
529 -30 -9
530 40 19
531 40 19
532 40 19
533 40 19
534 40 19
535 28 -34
536 28 -34
537 28 -34
538 28 -34
539 -19 31
540 -19 31
541 -19 31
542 -19 31
543 -29 -47
544 -29 -47
545 -29 -47
546 -29 -47
547 -7 -6
548 -7 -6
549 -7 -6
550 -7 -6
551 -7 -6
552 -7 -6
553 -7 -6
554 -13 1
555 -13 1
556 -13 1
557 -13 1
558 -45 32
559 -45 32
560 -45 32
561 -45 32
562 -45 32
563 1 26
564 1 26
565 1 26
566 -23 -41
567 -23 -41
568 -23 -41
569 -16 -28
570 -16 -28
571 -16 -28
572 -16 -28
573 -16 -28
574 -16 -28
575 14 -38
576 14 -38
577 14 -38
578 14 -38
579 -30 4
580 -30 4
581 -30 4
582 -30 4
583 -30 4
584 -30 4
585 -29 -44
586 -29 -44
587 -29 -44
588 -29 -44
589 -29 -44
590 -29 -44
591 -45 50
592 -45 50
593 -45 50
594 -13 -12
595 -13 -12
596 -13 -12
597 -13 -12
598 -13 -12
599 47 19
600 47 19
601 47 19
602 16 -19
603 16 -19
604 16 -19
605 16 -19
606 16 -19
607 -29 -40
608 -29 -40
609 -29 -40
610 -24 -34
611 -24 -34
612 -24 -34
613 12 -39
614 12 -39
615 12 -39
616 -1 1
617 -1 1
618 -1 1
619 5 1
620 5 1
621 5 1
622 -44 40
623 -44 40
624 -44 40
625 -44 40
626 -44 40
627 28 46
628 28 46
629 28 46
630 28 46
631 28 46
632 28 46
633 -35 -13
634 -35 -13
635 -35 -13
636 -35 -13
637 -11 -7
638 -11 -7
639 -11 -7
640 -11 -7
641 -11 -7
642 -12 -5
643 -12 -5
644 -12 -5
645 -12 -5
646 -12 -5
647 -12 -5
648 -36 -31
649 -36 -31
650 -36 -31
651 -36 -31
652 -36 -31
653 -36 -31
654 0 -12
655 0 -12
656 0 -12
657 0 -12
658 0 -12
659 -30 31
660 -30 31
661 -30 31
662 11 20
663 11 20
664 11 20
665 11 20
666 11 20
667 11 20
668 11 20
669 35 21
670 35 21
671 35 21
672 35 21
673 -7 -36
674 -7 -36
675 -7 -36
676 -7 -36
677 -7 -36
678 -7 -36
679 -31 -37
680 -31 -37
681 -31 -37
682 -31 -37
683 18 39
684 18 39
685 -12 -46
686 -12 -46
687 -12 -46
688 -12 -46
689 50 19
690 50 19
691 -24 -34
692 -24 -34
693 -24 -34
694 -24 -34
695 -24 -34
696 -25 46
697 -25 46
698 -13 28
699 -13 28
700 -13 28
701 40 5
702 40 5
DEMAND_SECTION
1 0
2 400
3 400
4 10
5 400
6 20
7 20
8 20
9 400
10 20
11 10
12 400
13 20
14 20
15 20
16 10
17 200
18 100
19 20
20 20
21 20
22 200
23 100
24 20
25 400
26 400
27 10
28 400
29 400
30 20
31 20
32 20
33 20
34 10
35 400
36 400
37 200
38 400
39 400
40 20
41 20
42 20
43 20
44 10
45 400
46 400
47 100
48 20
49 20
50 20
51 20
52 10
53 400
54 200
55 20
56 400
57 200
58 100
59 20
60 20
61 20
62 400
63 100
64 20
65 20
66 400
67 200
68 10
69 400
70 400
71 20
72 20
73 20
74 20
75 200
76 20
77 20
78 10
79 400
80 400
81 100
82 20
83 20
84 10
85 400
86 20
87 20
88 10
89 400
90 200
91 20
92 20
93 200
94 100
95 10
96 400
97 200
98 100
99 20
100 20
101 10
102 400
103 200
104 20
105 20
106 400
107 200
108 100
109 20
110 20
111 400
112 100
113 20
114 20
115 20
116 20
117 10
118 400
119 20
120 20
121 400
122 100
123 20
124 10
125 400
126 200
127 20
128 400
129 200
130 20
131 20
132 20
133 20
134 400
135 100
136 20
137 20
138 20
139 20
140 400
141 100
142 400
143 400
144 20
145 20
146 10
147 400
148 200
149 100
150 20
151 20
152 20
153 20
154 10
155 400
156 100
157 20
158 10
159 400
160 200
161 20
162 20
163 20
164 10
165 400
166 20
167 20
168 10
169 400
170 100
171 20
172 20
173 20
174 10
175 400
176 200
177 20
178 10
179 400
180 400
181 10
182 200
183 20
184 20
185 20
186 10
187 400
188 400
189 100
190 20
191 20
192 20
193 10
194 400
195 400
196 100
197 10
198 200
199 20
200 20
201 20
202 20
203 400
204 200
205 100
206 400
207 200
208 20
209 20
210 400
211 200
212 100
213 20
214 20
215 20
216 400
217 400
218 20
219 20
220 20
221 20
222 400
223 400
224 200
225 400
226 200
227 20
228 20
229 20
230 20
231 10
232 400
233 100
234 20
235 20
236 20
237 20
238 10
239 400
240 400
241 100
242 20
243 20
244 20
245 20
246 400
247 20
248 20
249 20
250 10
251 400
252 10
253 400
254 200
255 20
256 20
257 20
258 20
259 10
260 400
261 100
262 20
263 20
264 20
265 400
266 100
267 10
268 400
269 400
270 20
271 10
272 400
273 20
274 20
275 20
276 10
277 400
278 400
279 200
280 400
281 400
282 20
283 20
284 20
285 10
286 400
287 200
288 20
289 20
290 20
291 400
292 100
293 20
294 20
295 400
296 200
297 20
298 20
299 10
300 400
301 200
302 20
303 20
304 200
305 100
306 20
307 20
308 20
309 20
310 10
311 400
312 200
313 100
314 20
315 20
316 20
317 20
318 10
319 400
320 400
321 20
322 400
323 20
324 20
325 20
326 20
327 400
328 200
329 10
330 200
331 100
332 20
333 20
334 20
335 20
336 400
337 200
338 20
339 10
340 400
341 20
342 20
343 400
344 200
345 20
346 20
347 20
348 400
349 100
350 20
351 20
352 20
353 20
354 200
355 100
356 400
357 400
358 200
359 400
360 400
361 100
362 20
363 400
364 400
365 100
366 20
367 20
368 400
369 20
370 20
371 10
372 400
373 400
374 100
375 20
376 20
377 10
378 400
379 200
380 20
381 10
382 400
383 400
384 100
385 20
386 20
387 20
388 20
389 10
390 400
391 200
392 100
393 20
394 10
395 400
396 100
397 10
398 400
399 100
400 20
401 20
402 20
403 20
404 200
405 100
406 20
407 20
408 20
409 20
410 10
411 200
412 100
413 20
414 20
415 20
416 20
417 400
418 400
419 20
420 20
421 20
422 20
423 10
424 400
425 400
426 20
427 20
428 20
429 20
430 400
431 400
432 100
433 20
434 20
435 20
436 20
437 400
438 400
439 100
440 20
441 10
442 400
443 100
444 20
445 20
446 20
447 20
448 400
449 200
450 100
451 20
452 20
453 20
454 400
455 400
456 100
457 20
458 20
459 20
460 20
461 10
462 400
463 200
464 100
465 20
466 10
467 400
468 400
469 100
470 20
471 10
472 400
473 400
474 20
475 20
476 20
477 20
478 400
479 20
480 20
481 20
482 10
483 400
484 400
485 100
486 10
487 400
488 100
489 20
490 20
491 20
492 10
493 400
494 100
495 20
496 20
497 10
498 400
499 400
500 400
501 200
502 20
503 20
504 20
505 20
506 10
507 200
508 20
509 20
510 20
511 10
512 400
513 100
514 200
515 100
516 20
517 20
518 400
519 400
520 10
521 400
522 20
523 20
524 20
525 10
526 400
527 400
528 100
529 20
530 400
531 100
532 20
533 20
534 20
535 200
536 100
537 20
538 10
539 400
540 200
541 20
542 20
543 400
544 100
545 20
546 20
547 200
548 100
549 20
550 20
551 20
552 20
553 10
554 400
555 100
556 20
557 20
558 400
559 200
560 20
561 20
562 20
563 200
564 100
565 20
566 400
567 20
568 10
569 400
570 200
571 100
572 20
573 20
574 20
575 400
576 400
577 100
578 20
579 200
580 100
581 20
582 20
583 20
584 20
585 400
586 400
587 20
588 20
589 20
590 20
591 400
592 100
593 10
594 200
595 100
596 20
597 20
598 10
599 400
600 200
601 20
602 400
603 200
604 100
605 20
606 20
607 200
608 100
609 20
610 400
611 200
612 100
613 400
614 400
615 200
616 400
617 20
618 20
619 400
620 200
621 100
622 400
623 20
624 20
625 20
626 10
627 400
628 400
629 20
630 20
631 20
632 20
633 400
634 20
635 20
636 10
637 400
638 100
639 20
640 20
641 20
642 200
643 100
644 20
645 20
646 20
647 20
648 400
649 200
650 100
651 20
652 20
653 20
654 400
655 200
656 100
657 20
658 10
659 400
660 100
661 10
662 400
663 200
664 20
665 20
666 20
667 20
668 10
669 200
670 20
671 20
672 20
673 400
674 200
675 20
676 20
677 20
678 10
679 400
680 200
681 100
682 10
683 400
684 200
685 400
686 20
687 20
688 20
689 400
690 10
691 400
692 200
693 100
694 20
695 20
696 400
697 400
698 200
699 100
700 10
701 200
702 100
DEPOT_SECTION
1
-1
EOF