SDVRP instances/custom_instances/p04_18_splitx10_0.sol
701 -4 6 202 204 203 282 280 279 281 283 284 -12 466 468 72 69 73 68 70 71 445 443 441 444 446 442 -15 14 13 470 467 469 143 142 144 141 145 300 302 299 301 -16 19 20 93 92 94 497 498 208 206 207 205 -22 21 23 666 667 663 123 122 120 121 140 139 682 683 -25 26 24 670 671 669 668 424 423 425 426 427 428 -34 35 36 172 169 170 168 173 63 64 61 -47 50 491 487 488 489 292 290 291 293 511 512 330 334 332 333 329 331 581 582 578 579 580 583 -60 56 59 58 57 55 17 18 42 43 41 40 38 37 39 536 537 534 -62 130 127 132 128 129 131 244 242 243 240 241 239 137 136 135 138 134 133 -67 65 66 252 254 258 490 486 264 265 266 -74 77 75 76 310 316 312 315 313 311 314 317 267 268 270 269 -78 81 82 83 79 80 9 8 10 261 260 259 459 457 -84 86 87 85 339 340 341 357 356 355 535 -96 98 605 601 603 604 602 216 219 215 -100 99 95 97 224 230 227 229 228 225 11 179 -101 91 88 89 90 558 557 560 559 561 257 256 255 253 247 249 -103 104 102 625 621 624 623 622 155 157 154 156 590 592 591 539 541 309 306 -107 105 108 106 109 684 686 687 685 673 674 677 675 672 676 354 -124 125 126 -150 152 147 151 153 148 149 146 510 507 509 508 506 482 485 484 483 -161 163 162 159 158 160 319 318 320 540 538 -164 167 165 166 394 395 396 113 110 115 111 114 112 116 238 -171 5 7 700 701 689 688 599 598 600 532 529 533 531 530 -175 177 176 174 328 327 326 647 648 650 651 649 652 -182 184 185 183 181 337 338 335 336 449 452 450 451 447 448 572 569 570 571 -189 188 190 192 186 380 377 378 379 499 503 505 502 501 500 504 -191 187 658 660 659 381 386 387 382 384 385 383 388 -211 213 584 585 544 542 545 543 271 275 272 274 273 -214 210 690 691 694 692 609 610 567 565 566 -217 218 220 201 199 197 198 200 366 365 362 364 363 350 352 347 348 349 351 -221 223 222 474 471 472 476 473 475 -226 614 613 612 577 576 575 574 -248 245 246 44 46 49 48 51 45 553 555 556 554 -276 277 278 520 523 524 521 522 479 477 480 478 481 664 665 -308 307 304 305 303 699 698 697 413 415 414 410 412 411 454 453 455 460 458 456 -323 325 324 322 321 234 233 231 235 237 232 236 418 421 419 420 422 417 416 -346 345 343 436 440 437 438 439 518 519 517 -353 53 52 54 178 180 653 654 657 656 655 -359 361 360 358 399 400 402 401 398 397 368 370 369 367 -376 374 371 372 373 375 641 642 644 638 636 640 639 637 547 551 548 549 -405 404 406 407 403 408 409 393 391 392 390 389 628 629 630 631 627 626 -434 433 432 430 431 429 435 209 212 568 573 -464 463 462 461 465 595 593 596 594 597 297 294 298 295 296 552 550 546 -513 514 516 515 263 262 2 1 3 695 696 -527 526 528 525 118 119 117 634 635 632 633 643 645 646 -563 562 564 287 288 286 289 285 250 251 661 662 -608 607 606 587 588 589 586 31 28 33 32 29 30 27 493 496 679 678 -611 693 195 194 196 193 342 344 492 495 494 680 681 -615 -616 617 -619 618 620 0 





OBJ=
4516.007
BEST_KNOWN=
0.000